p cnf 20 30
2 -4 -7 0
-4 -17 7 0
-10 -17 -8 0
2 -15 -18 0
-12 -9 7 0
16 -5 14 0
-11 12 15 0
-3 16 9 0
-17 -8 2 0
4 -7 -10 0
-17 -7 8 0
9 -15 -2 0
5 4 9 0
-5 12 10 0
11 18 6 0
15 2 7 0
11 -13 -9 0
3 10 -8 0
13 -7 -10 0
-20 16 -2 0
1 -14 -13 0
6 -4 12 0
9 19 -5 0
9 -8 -15 0
8 10 -5 0
8 13 -2 0
11 5 -7 0
-12 13 18 0
-19 2 11 0
15 6 -5 0
